NAME : portcgen-18-5
COMMENT : portcgen N=18, seed=5
TYPE : TSP
DIMENSION : 18
EDGE_WEIGHT_TYPE : EUC_2D
NODE_COORD_SECTION
1 171803 19611
2 72882 -18670
3 34732 52536
4 -254167 330159
5 -269929 35529
6 21698 -42304
7 160416 204866
8 217743 232657
9 38516 -251579
10 241238 10689
11 25660 -171759
12 136614 212053
13 -112958 392022
14 -55124 190284
15 -79934 87102
16 448765 297293
17 -238199 214798
18 -99558 393336
